	Costo	Nv	Tiempo
1	1289,9	5	5,936
2	2294,36	10	12,048
3	2960,81	8	22
4	4309,81	12	48,893
5	5475,88	17	89,487
6	1381,42	10	6
7	2112,88	19	12,548
8	2965,82	18	22,734
9	4270,68	30	50,666
10	5627,41	39	96,179
11	4410,67	7	34,184
12	3231,79	10	22,685
13	5448,51	17	33,637
14	3533,91	13	22,95
